Problem:    p2_2
Rows:       3
Columns:    5
Non-zeros:  13
Status:     OPTIMAL
Objective:  z = -62 (MINimum)

   No.   Row name   St   Activity     Lower bound   Upper bound    Marginal
------ ------------ -- ------------- ------------- ------------- -------------
     1 z            B            -62                             
     2 procEq1      NS            10            10             =            -3 
     3 procEq2      NS            16            16             =            -2 

   No. Column name  St   Activity     Lower bound   Upper bound    Marginal
------ ------------ -- ------------- ------------- ------------- -------------
     1 x1           B             12             0               
     2 x2           B              7             0               
     3 x3           NL             0             0                          10 
     4 x4           NL             0             0                           4 
     5 x5           NL             0             0                           1 

Karush-Kuhn-Tucker optimality conditions:

KKT.PE: max.abs.err = 0.00e+00 on row 0
        max.rel.err = 0.00e+00 on row 0
        High quality

KKT.PB: max.abs.err = 0.00e+00 on row 0
        max.rel.err = 0.00e+00 on row 0
        High quality

KKT.DE: max.abs.err = 0.00e+00 on column 0
        max.rel.err = 0.00e+00 on column 0
        High quality

KKT.DB: max.abs.err = 0.00e+00 on row 0
        max.rel.err = 0.00e+00 on row 0
        High quality

End of output
